SYSTEM = Si-Diamond
ENCUT = 400
ISTART = 0 
ICHARG = 2
PREC = Normal
#EDIFF = 1.0E-8  
EDIFF = 1.0E-6
EDIFFG = -0.02
ISYM = 0
NSW = 1000
ISIF = 2  
LREAL = .FALSE.
LWAVE = .FALSE.
LCHARG = .FALSE.
NELMIN = 5 
NCORE=128
NPAR = 8

#NEB
IBRION = 3 
POTIM = 0   
#IOPT = 1   
#INVCURV = 0.002 
IOPT = 3
TIMESTEP=0.01
ICHAIN = 0  
LCLIMB = .TRUE. 
SPRING = -5 
IMAGES = 5
