Pd  N  O                                
   1.00000000000000     
    11.1449118996936001    0.0000000000000000    0.0000000000000000
     5.5724559498468098    9.6517768280741496    0.0000000000000000
     0.0000000000000000    0.0000000000000000   21.8248368456304007
   Pd   N    O 
    64     2     1
Selective dynamics
Direct
  0.0000000000000000  0.0000000000000000  0.3436451806282994   F   F   F
  0.2500000000000000  0.0000000000000000  0.3436451806282994   F   F   F
  0.5000000000000000  0.0000000000000000  0.3436451806282994   F   F   F
  0.7500000000000001  0.0000000000000000  0.3436451806282994   F   F   F
  0.0000000000000028  0.2499999999999995  0.3436451806282994   F   F   F
  0.2500000000000001  0.2499999999999995  0.3436451806282994   F   F   F
  0.4999999999999999  0.2499999999999995  0.3436451806282994   F   F   F
  0.7500000000000002  0.2499999999999995  0.3436451806282994   F   F   F
  0.0000000000000056  0.4999999999999989  0.3436451806282994   F   F   F
  0.2500000000000005  0.4999999999999989  0.3436451806282994   F   F   F
  0.5000000000000002  0.4999999999999989  0.3436451806282994   F   F   F
  0.7500000000000006  0.4999999999999989  0.3436451806282994   F   F   F
  0.0000000000000062  0.7499999999999840  0.3436451806282994   F   F   F
  0.2500000000000072  0.7499999999999840  0.3436451806282994   F   F   F
  0.5000000000000077  0.7499999999999840  0.3436451806282994   F   F   F
  0.7500000000000044  0.7499999999999840  0.3436451806282994   F   F   F
  0.0833333333333357  0.0833333333333357  0.4478817268760931   F   F   F
  0.3333333333333357  0.0833333333333357  0.4478817268760931   F   F   F
  0.5833333333333357  0.0833333333333357  0.4478817268760931   F   F   F
  0.8333333333333356  0.0833333333333357  0.4478817268760931   F   F   F
  0.0833333333333357  0.3333333333333355  0.4478817268760931   F   F   F
  0.3333333333333357  0.3333333333333355  0.4478817268760931   F   F   F
  0.5833333333333357  0.3333333333333355  0.4478817268760931   F   F   F
  0.8333333333333357  0.3333333333333355  0.4478817268760931   F   F   F
  0.0833333333333357  0.5833333333333357  0.4478817268760931   F   F   F
  0.3333333333333358  0.5833333333333357  0.4478817268760931   F   F   F
  0.5833333333333357  0.5833333333333357  0.4478817268760931   F   F   F
  0.8333333333333357  0.5833333333333357  0.4478817268760931   F   F   F
  0.0833333333333359  0.8333333333333353  0.4478817268760931   F   F   F
  0.3333333333333359  0.8333333333333353  0.4478817268760931   F   F   F
  0.5833333333333359  0.8333333333333353  0.4478817268760931   F   F   F
  0.8333333333333358  0.8333333333333353  0.4478817268760931   F   F   F
  0.9166666666666643  0.1666666666666643  0.5531282297090083   F   F   F
  0.1666666666666643  0.1666666666666643  0.5531282297090083   F   F   F
  0.4166666666666643  0.1666666666666643  0.5531282297090083   F   F   F
  0.6666666666666643  0.1666666666666643  0.5531282297090083   F   F   F
  0.9166666666666643  0.4166666666666641  0.5531282297090083   F   F   F
  0.1666666666666643  0.4166666666666641  0.5531282297090083   F   F   F
  0.4166666666666644  0.4166666666666641  0.5531282297090083   F   F   F
  0.6666666666666644  0.4166666666666641  0.5531282297090083   F   F   F
  0.9166666666666644  0.6666666666666641  0.5531282297090083   F   F   F
  0.1666666666666644  0.6666666666666641  0.5531282297090083   F   F   F
  0.4166666666666643  0.6666666666666641  0.5531282297090083   F   F   F
  0.6666666666666642  0.6666666666666641  0.5531282297090083   F   F   F
  0.9166666666666645  0.9166666666666641  0.5531282297090083   F   F   F
  0.1666666666666643  0.9166666666666641  0.5531282297090083   F   F   F
  0.4166666666666644  0.9166666666666641  0.5531282297090083   F   F   F
  0.6666666666666644  0.9166666666666641  0.5531282297090083   F   F   F
  0.0000000000000000  0.0000000000000000  0.6593921129929097   F   F   F
  0.2500000000000000  0.0000000000000000  0.6593921129929097   F   F   F
  0.5000000000000000  0.0000000000000000  0.6593921129929097   F   F   F
  0.7500000000000001  0.0000000000000000  0.6593921129929097   F   F   F
  0.0000000000000028  0.2499999999999995  0.6593921129929097   F   F   F
  0.2500000000000001  0.2499999999999995  0.6593921129929097   F   F   F
  0.4999999999999999  0.2499999999999995  0.6593921129929097   F   F   F
  0.7500000000000002  0.2499999999999995  0.6593921129929097   F   F   F
  0.0000000000000056  0.4999999999999989  0.6593921129929097   F   F   F
  0.2500000000000005  0.4999999999999989  0.6593921129929097   F   F   F
  0.5000000000000002  0.4999999999999989  0.6593921129929097   F   F   F
  0.7500000000000006  0.4999999999999989  0.6593921129929097   F   F   F
  0.0000000000000062  0.7499999999999840  0.6593921129929097   F   F   F
  0.2500000000000072  0.7499999999999840  0.6593921129929097   F   F   F
  0.5000000000000077  0.7499999999999840  0.6593921129929097   F   F   F
  0.7500000000000044  0.7499999999999840  0.6593921129929097   F   F   F
  0.2451526636420509  0.0072094808249846  0.7515890535038633   T   T   T
  0.2306620462182429  0.0174584313605489  0.8027704987738361   T   T   T
  0.8713581598080294  0.1204100048069150  0.7206601991857186   T   T   T
 
             NaN             NaN             NaN
             NaN             NaN             NaN
             NaN             NaN             NaN
             NaN             NaN             NaN
             NaN             NaN             NaN
             NaN             NaN             NaN
             NaN             NaN             NaN
             NaN             NaN             NaN
             NaN             NaN             NaN
             NaN             NaN             NaN
             NaN             NaN             NaN
             NaN             NaN             NaN
             NaN             NaN             NaN
             NaN             NaN             NaN
             NaN             NaN             NaN
             NaN             NaN             NaN
             NaN             NaN             NaN
             NaN             NaN             NaN
             NaN             NaN             NaN
             NaN             NaN             NaN
             NaN             NaN             NaN
             NaN             NaN             NaN
             NaN             NaN             NaN
             NaN             NaN             NaN
             NaN             NaN             NaN
             NaN             NaN             NaN
             NaN             NaN             NaN
             NaN             NaN             NaN
             NaN             NaN             NaN
             NaN             NaN             NaN
             NaN             NaN             NaN
             NaN             NaN             NaN
             NaN             NaN             NaN
             NaN             NaN             NaN
             NaN             NaN             NaN
             NaN             NaN             NaN
             NaN             NaN             NaN
             NaN             NaN             NaN
             NaN             NaN             NaN
             NaN             NaN             NaN
             NaN             NaN             NaN
             NaN             NaN             NaN
             NaN             NaN             NaN
             NaN             NaN             NaN
             NaN             NaN             NaN
             NaN             NaN             NaN
             NaN             NaN             NaN
             NaN             NaN             NaN
             NaN             NaN             NaN
             NaN             NaN             NaN
             NaN             NaN             NaN
             NaN             NaN             NaN
             NaN             NaN             NaN
             NaN             NaN             NaN
             NaN             NaN             NaN
             NaN             NaN             NaN
             NaN             NaN             NaN
             NaN             NaN             NaN
             NaN             NaN             NaN
             NaN             NaN             NaN
             NaN             NaN             NaN
             NaN             NaN             NaN
             NaN             NaN             NaN
             NaN             NaN             NaN
             NaN             NaN             NaN
             NaN             NaN             NaN
             NaN             NaN             NaN
