Pd  N  O 
 1.0000000000000000
  11.1449118996936001   0.0000000000000000   0.0000000000000000
   5.5724559498468098   9.6517768280741496   0.0000000000000000
   0.0000000000000000   0.0000000000000000  21.8248368456304007
64  2  1  
Selective dynamics
Direct
  0.0000000000000000  0.0000000000000000  0.3436451806283070 F F F
  0.2500000000000000  0.0000000000000000  0.3436451806283070 F F F
  0.5000000000000000  0.0000000000000000  0.3436451806283070 F F F
  0.7500000000000000  0.0000000000000000  0.3436451806283070 F F F
  0.0000000000000000  0.2500000000000000  0.3436451806283070 F F F
  0.2500000000000000  0.2500000000000000  0.3436451806283070 F F F
  0.5000000000000000  0.2500000000000000  0.3436451806283070 F F F
  0.7500000000000000  0.2500000000000000  0.3436451806283070 F F F
  0.0000000000000000  0.5000000000000000  0.3436451806283070 F F F
  0.2500000000000000  0.5000000000000000  0.3436451806283070 F F F
  0.5000000000000000  0.5000000000000000  0.3436451806283070 F F F
  0.7500000000000000  0.5000000000000000  0.3436451806283070 F F F
  0.0000000000000000  0.7500000000000000  0.3436451806283070 F F F
  0.2500000000000000  0.7500000000000000  0.3436451806283070 F F F
  0.5000000000000000  0.7500000000000000  0.3436451806283070 F F F
  0.7500000000000000  0.7500000000000000  0.3436451806283070 F F F
  0.0833333333333357  0.0833333333333357  0.4478817268761050 F F F
  0.3333333333333360  0.0833333333333357  0.4478817268761050 F F F
  0.5833333333333360  0.0833333333333357  0.4478817268761050 F F F
  0.8333333333333360  0.0833333333333357  0.4478817268761050 F F F
  0.0833333333333357  0.3333333333333360  0.4478817268761050 F F F
  0.3333333333333360  0.3333333333333360  0.4478817268761050 F F F
  0.5833333333333360  0.3333333333333360  0.4478817268761050 F F F
  0.8333333333333360  0.3333333333333360  0.4478817268761050 F F F
  0.0833333333333357  0.5833333333333360  0.4478817268761050 F F F
  0.3333333333333360  0.5833333333333360  0.4478817268761050 F F F
  0.5833333333333360  0.5833333333333360  0.4478817268761050 F F F
  0.8333333333333360  0.5833333333333360  0.4478817268761050 F F F
  0.0833333333333357  0.8333333333333360  0.4478817268761050 F F F
  0.3333333333333360  0.8333333333333360  0.4478817268761050 F F F
  0.5833333333333360  0.8333333333333360  0.4478817268761050 F F F
  0.8333333333333360  0.8333333333333360  0.4478817268761050 F F F
  0.9166666666666640  0.1666666666666640  0.5531282297090240 F F F
  0.1666666666666640  0.1666666666666640  0.5531282297090240 F F F
  0.4166666666666640  0.1666666666666640  0.5531282297090240 F F F
  0.6666666666666640  0.1666666666666640  0.5531282297090240 F F F
  0.9166666666666640  0.4166666666666640  0.5531282297090240 F F F
  0.1666666666666640  0.4166666666666640  0.5531282297090240 F F F
  0.4166666666666640  0.4166666666666640  0.5531282297090240 F F F
  0.6666666666666640  0.4166666666666640  0.5531282297090240 F F F
  0.9166666666666640  0.6666666666666640  0.5531282297090240 F F F
  0.1666666666666640  0.6666666666666640  0.5531282297090240 F F F
  0.4166666666666640  0.6666666666666640  0.5531282297090240 F F F
  0.6666666666666640  0.6666666666666640  0.5531282297090240 F F F
  0.9166666666666640  0.9166666666666640  0.5531282297090240 F F F
  0.1666666666666640  0.9166666666666640  0.5531282297090240 F F F
  0.4166666666666640  0.9166666666666640  0.5531282297090240 F F F
  0.6666666666666640  0.9166666666666640  0.5531282297090240 F F F
  0.0000000000000000  0.0000000000000000  0.6593921129929260 F F F
  0.2500000000000000  0.0000000000000000  0.6593921129929260 F F F
  0.5000000000000000  0.0000000000000000  0.6593921129929260 F F F
  0.7500000000000000  0.0000000000000000  0.6593921129929260 F F F
  0.0000000000000000  0.2500000000000000  0.6593921129929260 F F F
  0.2500000000000000  0.2500000000000000  0.6593921129929260 F F F
  0.5000000000000000  0.2500000000000000  0.6593921129929260 F F F
  0.7500000000000000  0.2500000000000000  0.6593921129929260 F F F
  0.0000000000000000  0.5000000000000000  0.6593921129929260 F F F
  0.2500000000000000  0.5000000000000000  0.6593921129929260 F F F
  0.5000000000000000  0.5000000000000000  0.6593921129929260 F F F
  0.7500000000000000  0.5000000000000000  0.6593921129929260 F F F
  0.0000000000000000  0.7500000000000000  0.6593921129929260 F F F
  0.2500000000000000  0.7500000000000000  0.6593921129929260 F F F
  0.5000000000000000  0.7500000000000000  0.6593921129929260 F F F
  0.7500000000000000  0.7500000000000000  0.6593921129929260 F F F
  0.2439978607854410  0.0075536453582856  0.7572012982572430 T T T
  0.1733909411557950  0.0617397944466660  0.7986499532412450 T T T
  0.0985230534209265  0.1192782875745240  0.8412586253233770 T T T
