Pd  N  O                                
   1.00000000000000     
    11.1449118996936001    0.0000000000000000    0.0000000000000000
     5.5724559498468098    9.6517768280741496    0.0000000000000000
     0.0000000000000000    0.0000000000000000   21.8248368456304007
   Pd   N    O 
    64     2     1
Selective dynamics
Direct
  0.0000000000000000  0.0000000000000000  0.3436451806283003   F   F   F
  0.2500000000000000  0.0000000000000000  0.3436451806283003   F   F   F
  0.5000000000000000  0.0000000000000000  0.3436451806283003   F   F   F
  0.7500000000000000  0.0000000000000000  0.3436451806283003   F   F   F
  0.0000000000000000  0.2500000000000000  0.3436451806283003   F   F   F
  0.2500000000000000  0.2500000000000000  0.3436451806283003   F   F   F
  0.5000000000000000  0.2500000000000000  0.3436451806283003   F   F   F
  0.7500000000000000  0.2500000000000000  0.3436451806283003   F   F   F
  0.0000000000000071  0.5000000000000000  0.3436451806283003   F   F   F
  0.2500000000000000  0.5000000000000000  0.3436451806283003   F   F   F
  0.5000000000000000  0.5000000000000000  0.3436451806283003   F   F   F
  0.7500000000000000  0.5000000000000000  0.3436451806283003   F   F   F
  0.0000000000000071  0.7499999999999858  0.3436451806283003   F   F   F
  0.2500000000000071  0.7499999999999858  0.3436451806283003   F   F   F
  0.5000000000000071  0.7499999999999858  0.3436451806283003   F   F   F
  0.7500000000000071  0.7499999999999858  0.3436451806283003   F   F   F
  0.0833333333333357  0.0833333333333357  0.4478817268760906   F   F   F
  0.3333333333333357  0.0833333333333357  0.4478817268760906   F   F   F
  0.5833333333333357  0.0833333333333357  0.4478817268760906   F   F   F
  0.8333333333333357  0.0833333333333357  0.4478817268760906   F   F   F
  0.0833333333333357  0.3333333333333357  0.4478817268760906   F   F   F
  0.3333333333333357  0.3333333333333357  0.4478817268760906   F   F   F
  0.5833333333333357  0.3333333333333357  0.4478817268760906   F   F   F
  0.8333333333333357  0.3333333333333357  0.4478817268760906   F   F   F
  0.0833333333333357  0.5833333333333357  0.4478817268760906   F   F   F
  0.3333333333333357  0.5833333333333357  0.4478817268760906   F   F   F
  0.5833333333333357  0.5833333333333357  0.4478817268760906   F   F   F
  0.8333333333333357  0.5833333333333357  0.4478817268760906   F   F   F
  0.0833333333333357  0.8333333333333357  0.4478817268760906   F   F   F
  0.3333333333333357  0.8333333333333357  0.4478817268760906   F   F   F
  0.5833333333333357  0.8333333333333357  0.4478817268760906   F   F   F
  0.8333333333333357  0.8333333333333357  0.4478817268760906   F   F   F
  0.9166666666666643  0.1666666666666643  0.5531282297090101   F   F   F
  0.1666666666666643  0.1666666666666643  0.5531282297090101   F   F   F
  0.4166666666666643  0.1666666666666643  0.5531282297090101   F   F   F
  0.6666666666666643  0.1666666666666643  0.5531282297090101   F   F   F
  0.9166666666666643  0.4166666666666643  0.5531282297090101   F   F   F
  0.1666666666666643  0.4166666666666643  0.5531282297090101   F   F   F
  0.4166666666666643  0.4166666666666643  0.5531282297090101   F   F   F
  0.6666666666666643  0.4166666666666643  0.5531282297090101   F   F   F
  0.9166666666666643  0.6666666666666643  0.5531282297090101   F   F   F
  0.1666666666666643  0.6666666666666643  0.5531282297090101   F   F   F
  0.4166666666666643  0.6666666666666643  0.5531282297090101   F   F   F
  0.6666666666666643  0.6666666666666643  0.5531282297090101   F   F   F
  0.9166666666666643  0.9166666666666643  0.5531282297090101   F   F   F
  0.1666666666666643  0.9166666666666643  0.5531282297090101   F   F   F
  0.4166666666666643  0.9166666666666643  0.5531282297090101   F   F   F
  0.6666666666666643  0.9166666666666643  0.5531282297090101   F   F   F
  0.0000000000000000  0.0000000000000000  0.6593921129929114   F   F   F
  0.2500000000000000  0.0000000000000000  0.6593921129929114   F   F   F
  0.5000000000000000  0.0000000000000000  0.6593921129929114   F   F   F
  0.7500000000000000  0.0000000000000000  0.6593921129929114   F   F   F
  0.0000000000000000  0.2500000000000000  0.6593921129929114   F   F   F
  0.2500000000000000  0.2500000000000000  0.6593921129929114   F   F   F
  0.5000000000000000  0.2500000000000000  0.6593921129929114   F   F   F
  0.7500000000000000  0.2500000000000000  0.6593921129929114   F   F   F
  0.0000000000000071  0.5000000000000000  0.6593921129929114   F   F   F
  0.2500000000000000  0.5000000000000000  0.6593921129929114   F   F   F
  0.5000000000000000  0.5000000000000000  0.6593921129929114   F   F   F
  0.7500000000000000  0.5000000000000000  0.6593921129929114   F   F   F
  0.0000000000000071  0.7499999999999858  0.6593921129929114   F   F   F
  0.2500000000000071  0.7499999999999858  0.6593921129929114   F   F   F
  0.5000000000000071  0.7499999999999858  0.6593921129929114   F   F   F
  0.7500000000000071  0.7499999999999858  0.6593921129929114   F   F   F
  0.2437266529670552  0.0088706178060036  0.7522773523270061   T   T   T
  0.2205101180901536  0.0242882895219267  0.8028002731443706   T   T   T
  0.9180338801925600  0.1567924825556019  0.7154754892980371   T   T   T
 
  0.00000000E+00  0.00000000E+00  0.00000000E+00
  0.00000000E+00  0.00000000E+00  0.00000000E+00
  0.00000000E+00  0.00000000E+00  0.00000000E+00
  0.00000000E+00  0.00000000E+00  0.00000000E+00
  0.00000000E+00  0.00000000E+00  0.00000000E+00
  0.00000000E+00  0.00000000E+00  0.00000000E+00
  0.00000000E+00  0.00000000E+00  0.00000000E+00
  0.00000000E+00  0.00000000E+00  0.00000000E+00
  0.00000000E+00  0.00000000E+00  0.00000000E+00
  0.00000000E+00  0.00000000E+00  0.00000000E+00
  0.00000000E+00  0.00000000E+00  0.00000000E+00
  0.00000000E+00  0.00000000E+00  0.00000000E+00
  0.00000000E+00  0.00000000E+00  0.00000000E+00
  0.00000000E+00  0.00000000E+00  0.00000000E+00
  0.00000000E+00  0.00000000E+00  0.00000000E+00
  0.00000000E+00  0.00000000E+00  0.00000000E+00
  0.00000000E+00  0.00000000E+00  0.00000000E+00
  0.00000000E+00  0.00000000E+00  0.00000000E+00
  0.00000000E+00  0.00000000E+00  0.00000000E+00
  0.00000000E+00  0.00000000E+00  0.00000000E+00
  0.00000000E+00  0.00000000E+00  0.00000000E+00
  0.00000000E+00  0.00000000E+00  0.00000000E+00
  0.00000000E+00  0.00000000E+00  0.00000000E+00
  0.00000000E+00  0.00000000E+00  0.00000000E+00
  0.00000000E+00  0.00000000E+00  0.00000000E+00
  0.00000000E+00  0.00000000E+00  0.00000000E+00
  0.00000000E+00  0.00000000E+00  0.00000000E+00
  0.00000000E+00  0.00000000E+00  0.00000000E+00
  0.00000000E+00  0.00000000E+00  0.00000000E+00
  0.00000000E+00  0.00000000E+00  0.00000000E+00
  0.00000000E+00  0.00000000E+00  0.00000000E+00
  0.00000000E+00  0.00000000E+00  0.00000000E+00
  0.00000000E+00  0.00000000E+00  0.00000000E+00
  0.00000000E+00  0.00000000E+00  0.00000000E+00
  0.00000000E+00  0.00000000E+00  0.00000000E+00
  0.00000000E+00  0.00000000E+00  0.00000000E+00
  0.00000000E+00  0.00000000E+00  0.00000000E+00
  0.00000000E+00  0.00000000E+00  0.00000000E+00
  0.00000000E+00  0.00000000E+00  0.00000000E+00
  0.00000000E+00  0.00000000E+00  0.00000000E+00
  0.00000000E+00  0.00000000E+00  0.00000000E+00
  0.00000000E+00  0.00000000E+00  0.00000000E+00
  0.00000000E+00  0.00000000E+00  0.00000000E+00
  0.00000000E+00  0.00000000E+00  0.00000000E+00
  0.00000000E+00  0.00000000E+00  0.00000000E+00
  0.00000000E+00  0.00000000E+00  0.00000000E+00
  0.00000000E+00  0.00000000E+00  0.00000000E+00
  0.00000000E+00  0.00000000E+00  0.00000000E+00
  0.00000000E+00  0.00000000E+00  0.00000000E+00
  0.00000000E+00  0.00000000E+00  0.00000000E+00
  0.00000000E+00  0.00000000E+00  0.00000000E+00
  0.00000000E+00  0.00000000E+00  0.00000000E+00
  0.00000000E+00  0.00000000E+00  0.00000000E+00
  0.00000000E+00  0.00000000E+00  0.00000000E+00
  0.00000000E+00  0.00000000E+00  0.00000000E+00
  0.00000000E+00  0.00000000E+00  0.00000000E+00
  0.00000000E+00  0.00000000E+00  0.00000000E+00
  0.00000000E+00  0.00000000E+00  0.00000000E+00
  0.00000000E+00  0.00000000E+00  0.00000000E+00
  0.00000000E+00  0.00000000E+00  0.00000000E+00
  0.00000000E+00  0.00000000E+00  0.00000000E+00
  0.00000000E+00  0.00000000E+00  0.00000000E+00
  0.00000000E+00  0.00000000E+00  0.00000000E+00
  0.00000000E+00  0.00000000E+00  0.00000000E+00
  0.00000000E+00  0.00000000E+00  0.00000000E+00
  0.00000000E+00  0.00000000E+00  0.00000000E+00
  0.00000000E+00  0.00000000E+00  0.00000000E+00
