SYSTEM = Si-Diamond
ENCUT = 400
ISTART = 0 
ICHARG = 2
PREC = Normal 
EDIFF = 1.0E-7
ISYM = 0
NSW = 1000
ISIF = 2  
LREAL = .FALSE.
LWAVE = .FALSE.
LCHARG = .FALSE.
NELMIN = 5 
NCORE=128
NPAR = 8
IBRION = 5 
POTIM = 0.002
